p cnf 15 23
15 14 9 0
-15 12 6 0
-15 -12 -3 0
15 -9 5 0
-15 9 -3 0
-15 7 1 0
15 6 4 0
15 -4 -3 0
-14 -12 -6 0
14 -11 4 0
14 10 4 0
13 -6 -2 0
12 -10 -8 0
12 -8 -5 0
11 -9 4 0
11 -8 -3 0
11 2 -1 0
-10 8 2 0
-10 8 1 0
-10 -7 -5 0
-10 -7 -3 0
9 -8 -5 0
-9 5 3 0
